p cnf 208 597
c inputs: 1 2 3 4 5 6 7 8 9
c variables for gates: 10 ... 199
c outputs: 200 201 202 203 204 205 206 207 208
c random input: 1 -2 3 4 -5 -6 -7 8 -9
10 -1 -6 0
-10 1 0
-10 6 0
11 -2 -5 0
-11 2 0
-11 5 0
12 -10 11 0
-12 10 0
-12 -11 0
13 -11 10 0
-13 11 0
-13 -10 0
14 12 13 0
-14 -12 0
-14 -13 0
15 -1 -6 0
-15 1 0
-15 6 0
16 -2 -5 0
-16 2 0
-16 5 0
17 -16 -15 0
-17 16 0
-17 15 0
18 -1 -7 0
-18 1 0
-18 7 0
19 -2 -6 0
-19 2 0
-19 6 0
20 -19 -18 0
-20 19 0
-20 18 0
21 -1 -7 0
-21 1 0
-21 7 0
22 -21 -17 0
-22 21 0
-22 17 0
23 -2 -6 0
-23 2 0
-23 6 0
24 -23 -17 0
-24 23 0
-24 17 0
25 22 24 0
-25 -22 0
-25 -24 0
26 20 -25 0
-26 -20 0
-26 25 0
27 -1 -7 0
-27 1 0
-27 7 0
28 -2 -6 0
-28 2 0
-28 6 0
29 -28 17 0
-29 28 0
-29 -17 0
30 28 -17 0
-30 -28 0
-30 17 0
31 30 29 0
-31 -30 0
-31 -29 0
32 -27 -31 0
-32 27 0
-32 31 0
33 27 31 0
-33 -27 0
-33 -31 0
34 33 32 0
-34 -33 0
-34 -32 0
35 -1 -8 0
-35 1 0
-35 8 0
36 -2 -7 0
-36 2 0
-36 7 0
37 -36 -35 0
-37 36 0
-37 35 0
38 -1 -8 0
-38 1 0
-38 8 0
39 -38 26 0
-39 38 0
-39 -26 0
40 -2 -7 0
-40 2 0
-40 7 0
41 -40 26 0
-41 40 0
-41 -26 0
42 41 39 0
-42 -41 0
-42 -39 0
43 37 -42 0
-43 -37 0
-43 42 0
44 -1 -8 0
-44 1 0
-44 8 0
45 -2 -7 0
-45 2 0
-45 7 0
46 -45 -26 0
-46 45 0
-46 26 0
47 45 26 0
-47 -45 0
-47 -26 0
48 46 47 0
-48 -46 0
-48 -47 0
49 -44 -48 0
-49 44 0
-49 48 0
50 44 48 0
-50 -44 0
-50 -48 0
51 50 49 0
-51 -50 0
-51 -49 0
52 -1 -9 0
-52 1 0
-52 9 0
53 -2 -8 0
-53 2 0
-53 8 0
54 -53 -52 0
-54 53 0
-54 52 0
55 -1 -9 0
-55 1 0
-55 9 0
56 -55 43 0
-56 55 0
-56 -43 0
57 -2 -8 0
-57 2 0
-57 8 0
58 -57 43 0
-58 57 0
-58 -43 0
59 56 58 0
-59 -56 0
-59 -58 0
60 54 -59 0
-60 -54 0
-60 59 0
61 -1 -9 0
-61 1 0
-61 9 0
62 -2 -8 0
-62 2 0
-62 8 0
63 -62 -43 0
-63 62 0
-63 43 0
64 62 43 0
-64 -62 0
-64 -43 0
65 63 64 0
-65 -63 0
-65 -64 0
66 -61 -65 0
-66 61 0
-66 65 0
67 61 65 0
-67 -61 0
-67 -65 0
68 66 67 0
-68 -66 0
-68 -67 0
69 -2 -9 0
-69 2 0
-69 9 0
70 -69 60 0
-70 69 0
-70 -60 0
71 -2 -9 0
-71 2 0
-71 9 0
72 -71 -60 0
-72 71 0
-72 60 0
73 71 60 0
-73 -71 0
-73 -60 0
74 72 73 0
-74 -72 0
-74 -73 0
75 -3 -5 0
-75 3 0
-75 5 0
76 75 34 0
-76 -75 0
-76 -34 0
77 -75 -34 0
-77 75 0
-77 34 0
78 77 76 0
-78 -77 0
-78 -76 0
79 -3 -5 0
-79 3 0
-79 5 0
80 -79 34 0
-80 79 0
-80 -34 0
81 -3 -6 0
-81 3 0
-81 6 0
82 -81 51 0
-82 81 0
-82 -51 0
83 51 -80 0
-83 -51 0
-83 80 0
84 -3 -6 0
-84 3 0
-84 6 0
85 -84 -80 0
-85 84 0
-85 80 0
86 85 83 0
-86 -85 0
-86 -83 0
87 82 -86 0
-87 -82 0
-87 86 0
88 -3 -6 0
-88 3 0
-88 6 0
89 -88 80 0
-89 88 0
-89 -80 0
90 88 -80 0
-90 -88 0
-90 80 0
91 90 89 0
-91 -90 0
-91 -89 0
92 51 -91 0
-92 -51 0
-92 91 0
93 -51 91 0
-93 51 0
-93 -91 0
94 92 93 0
-94 -92 0
-94 -93 0
95 -3 -7 0
-95 3 0
-95 7 0
96 -95 68 0
-96 95 0
-96 -68 0
97 68 87 0
-97 -68 0
-97 -87 0
98 -3 -7 0
-98 3 0
-98 7 0
99 -98 87 0
-99 98 0
-99 -87 0
100 99 97 0
-100 -99 0
-100 -97 0
101 96 -100 0
-101 -96 0
-101 100 0
102 -3 -7 0
-102 3 0
-102 7 0
103 -102 -87 0
-103 102 0
-103 87 0
104 102 87 0
-104 -102 0
-104 -87 0
105 103 104 0
-105 -103 0
-105 -104 0
106 68 -105 0
-106 -68 0
-106 105 0
107 -68 105 0
-107 68 0
-107 -105 0
108 107 106 0
-108 -107 0
-108 -106 0
109 -3 -8 0
-109 3 0
-109 8 0
110 -109 74 0
-110 109 0
-110 -74 0
111 74 101 0
-111 -74 0
-111 -101 0
112 -3 -8 0
-112 3 0
-112 8 0
113 -112 101 0
-113 112 0
-113 -101 0
114 111 113 0
-114 -111 0
-114 -113 0
115 110 -114 0
-115 -110 0
-115 114 0
116 -3 -8 0
-116 3 0
-116 8 0
117 -116 -101 0
-117 116 0
-117 101 0
118 116 101 0
-118 -116 0
-118 -101 0
119 117 118 0
-119 -117 0
-119 -118 0
120 74 -119 0
-120 -74 0
-120 119 0
121 -74 119 0
-121 74 0
-121 -119 0
122 120 121 0
-122 -120 0
-122 -121 0
123 -3 -9 0
-123 3 0
-123 9 0
124 -123 -70 0
-124 123 0
-124 70 0
125 -70 115 0
-125 70 0
-125 -115 0
126 -3 -9 0
-126 3 0
-126 9 0
127 -126 115 0
-127 126 0
-127 -115 0
128 125 127 0
-128 -125 0
-128 -127 0
129 -128 124 0
-129 128 0
-129 -124 0
130 -3 -9 0
-130 3 0
-130 9 0
131 -130 -115 0
-131 130 0
-131 115 0
132 130 115 0
-132 -130 0
-132 -115 0
133 131 132 0
-133 -131 0
-133 -132 0
134 -133 -70 0
-134 133 0
-134 70 0
135 133 70 0
-135 -133 0
-135 -70 0
136 134 135 0
-136 -134 0
-136 -135 0
137 -4 -5 0
-137 4 0
-137 5 0
138 137 94 0
-138 -137 0
-138 -94 0
139 -137 -94 0
-139 137 0
-139 94 0
140 139 138 0
-140 -139 0
-140 -138 0
141 -4 -5 0
-141 4 0
-141 5 0
142 -141 94 0
-142 141 0
-142 -94 0
143 -4 -6 0
-143 4 0
-143 6 0
144 -143 108 0
-144 143 0
-144 -108 0
145 -142 108 0
-145 142 0
-145 -108 0
146 -4 -6 0
-146 4 0
-146 6 0
147 -146 -142 0
-147 146 0
-147 142 0
148 145 147 0
-148 -145 0
-148 -147 0
149 -148 144 0
-149 148 0
-149 -144 0
150 -4 -6 0
-150 4 0
-150 6 0
151 -150 142 0
-151 150 0
-151 -142 0
152 150 -142 0
-152 -150 0
-152 142 0
153 152 151 0
-153 -152 0
-153 -151 0
154 -153 108 0
-154 153 0
-154 -108 0
155 153 -108 0
-155 -153 0
-155 108 0
156 154 155 0
-156 -154 0
-156 -155 0
157 -4 -7 0
-157 4 0
-157 7 0
158 -157 122 0
-158 157 0
-158 -122 0
159 122 149 0
-159 -122 0
-159 -149 0
160 -4 -7 0
-160 4 0
-160 7 0
161 -160 149 0
-161 160 0
-161 -149 0
162 159 161 0
-162 -159 0
-162 -161 0
163 158 -162 0
-163 -158 0
-163 162 0
164 -4 -7 0
-164 4 0
-164 7 0
165 -164 -149 0
-165 164 0
-165 149 0
166 164 149 0
-166 -164 0
-166 -149 0
167 165 166 0
-167 -165 0
-167 -166 0
168 122 -167 0
-168 -122 0
-168 167 0
169 -122 167 0
-169 122 0
-169 -167 0
170 169 168 0
-170 -169 0
-170 -168 0
171 -4 -8 0
-171 4 0
-171 8 0
172 -171 136 0
-172 171 0
-172 -136 0
173 163 136 0
-173 -163 0
-173 -136 0
174 -4 -8 0
-174 4 0
-174 8 0
175 -174 163 0
-175 174 0
-175 -163 0
176 175 173 0
-176 -175 0
-176 -173 0
177 -176 172 0
-177 176 0
-177 -172 0
178 -4 -8 0
-178 4 0
-178 8 0
179 -178 -163 0
-179 178 0
-179 163 0
180 178 163 0
-180 -178 0
-180 -163 0
181 180 179 0
-181 -180 0
-181 -179 0
182 -181 136 0
-182 181 0
-182 -136 0
183 181 -136 0
-183 -181 0
-183 136 0
184 182 183 0
-184 -182 0
-184 -183 0
185 -4 -9 0
-185 4 0
-185 9 0
186 -185 129 0
-186 185 0
-186 -129 0
187 129 177 0
-187 -129 0
-187 -177 0
188 -4 -9 0
-188 4 0
-188 9 0
189 -188 177 0
-189 188 0
-189 -177 0
190 187 189 0
-190 -187 0
-190 -189 0
191 -190 186 0
-191 190 0
-191 -186 0
192 -4 -9 0
-192 4 0
-192 9 0
193 -192 -177 0
-193 192 0
-193 177 0
194 192 177 0
-194 -192 0
-194 -177 0
195 193 194 0
-195 -193 0
-195 -194 0
196 129 -195 0
-196 -129 0
-196 195 0
197 -129 195 0
-197 129 0
-197 -195 0
198 197 196 0
-198 -197 0
-198 -196 0
199 -1 -5 0
-199 1 0
-199 5 0
-200 199 0
200 -199 0
-201 -14 0
201 14 0
-202 -78 0
202 78 0
-203 -140 0
203 140 0
-204 -156 0
204 156 0
-205 -170 0
205 170 0
-206 -184 0
206 184 0
-207 -198 0
207 198 0
-208 -191 0
208 191 0
-200 0
-201 0
-202 0
203 0
-204 0
205 0
206 0
-207 0
-208 0
